500
120 120
1 84 925
2 84 251
3 84 964
4 84 734
5 84 673
6 84 986
7 84 722
8 84 608
9 84 174
10 84 975
11 84 546
12 84 179
13 83 598
14 83 159
15 83 258
16 83 112
17 83 944
18 83 2
19 83 488
20 83 184
21 83 363
22 82 103
23 82 393
24 82 733
25 82 873
26 82 800
27 82 545
28 82 126
29 82 491
30 82 159
31 82 526
32 81 404
33 81 980
34 81 151
35 81 692
36 81 390
37 81 689
38 81 192
39 80 944
40 80 91
41 80 233
42 80 863
43 80 987
44 80 82
45 80 499
46 80 289
47 80 815
48 80 628
49 79 796
50 79 867
51 79 15
52 79 799
53 79 766
54 79 466
55 79 618
56 79 650
57 79 665
58 79 229
59 78 531
60 78 38
61 78 372
62 78 544
63 78 781
64 78 852
65 78 305
66 78 177
67 78 993
68 78 447
69 77 613
70 77 779
71 77 63
72 77 669
73 77 797
74 77 760
75 77 50
76 77 151
77 77 913
78 77 556
79 77 514
80 77 762
81 77 119
82 76 90
83 76 812
84 76 409
85 76 563
86 76 115
87 76 397
88 76 74
89 76 802
90 76 32
91 76 784
92 76 418
93 76 912
94 76 595
95 75 501
96 75 810
97 75 988
98 75 493
99 75 456
100 75 392
101 75 962
102 75 157
103 75 385
104 75 464
105 75 418
106 74 143
107 74 334
108 74 431
109 74 321
110 74 236
111 74 508
112 74 654
113 73 693
114 73 937
115 73 558
116 73 896
117 73 287
118 73 102
119 73 986
120 73 78
121 73 56
122 73 282
123 72 445
124 72 49
125 72 296
126 72 873
127 72 727
128 71 449
129 71 842
130 71 735
131 71 211
132 71 993
133 71 221
134 71 694
135 70 721
136 70 487
137 70 95
138 70 563
139 70 382
140 70 764
141 70 398
142 70 916
143 70 562
144 70 592
145 69 934
146 69 117
147 69 727
148 69 560
149 69 22
150 69 716
151 69 40
152 69 487
153 68 440
154 68 849
155 68 607
156 68 403
157 68 23
158 68 548
159 68 412
160 68 201
161 67 273
162 67 998
163 67 445
164 66 982
165 66 477
166 66 986
167 66 701
168 66 984
169 66 224
170 66 500
171 66 567
172 66 965
173 66 52
174 66 40
175 66 215
176 65 201
177 65 762
178 65 488
179 65 324
180 65 865
181 65 407
182 65 925
183 65 776
184 65 522
185 65 523
186 65 67
187 64 746
188 64 853
189 64 621
190 64 525
191 64 266
192 64 450
193 64 59
194 64 569
195 63 822
196 63 441
197 63 382
198 63 279
199 63 166
200 62 857
201 62 591
202 62 394
203 62 124
204 62 406
205 62 3
206 62 603
207 62 51
208 62 76
209 61 14
210 61 37
211 61 245
212 61 952
213 61 557
214 61 476
215 61 64
216 61 592
217 61 614
218 61 792
219 61 514
220 61 432
221 61 251
222 61 635
223 61 858
224 61 32
225 61 941
226 60 340
227 60 625
228 60 88
229 60 679
230 60 452
231 60 582
232 59 340
233 59 677
234 59 579
235 59 532
236 59 41
237 58 157
238 58 934
239 58 320
240 58 588
241 58 96
242 58 353
243 58 522
244 58 991
245 58 783
246 58 45
247 57 815
248 57 564
249 57 292
250 57 435
251 57 796
252 57 112
253 57 855
254 57 167
255 57 811
256 57 759
257 56 617
258 56 272
259 56 346
260 56 702
261 56 187
262 56 341
263 56 839
264 55 0
265 55 315
266 55 234
267 55 142
268 55 890
269 55 917
270 55 917
271 54 595
272 54 849
273 54 351
274 54 262
275 54 110
276 54 318
277 54 157
278 54 823
279 54 919
280 54 188
281 53 126
282 53 535
283 53 972
284 53 740
285 53 325
286 52 803
287 52 966
288 52 604
289 52 806
290 52 562
291 52 661
292 52 337
293 52 916
294 52 610
295 51 464
296 51 65
297 51 662
298 51 42
299 51 907
300 51 374
301 50 111
302 50 214
303 50 333
304 50 915
305 50 448
306 50 599
307 50 925
308 49 712
309 49 560
310 49 318
311 49 892
312 49 896
313 49 7
314 49 563
315 49 745
316 48 484
317 48 794
318 48 575
319 48 579
320 48 958
321 47 266
322 47 693
323 47 352
324 47 245
325 47 437
326 47 799
327 47 939
328 47 483
329 47 20
330 47 404
331 46 987
332 46 92
333 46 310
334 46 642
335 46 988
336 46 5
337 46 300
338 46 56
339 45 12
340 45 985
341 45 940
342 45 394
343 45 246
344 45 976
345 45 893
346 44 481
347 44 54
348 44 965
349 44 899
350 44 48
351 44 151
352 44 631
353 44 646
354 44 751
355 43 472
356 43 540
357 43 534
358 43 639
359 42 214
360 42 104
361 42 45
362 42 414
363 42 558
364 42 202
365 42 614
366 41 256
367 41 698
368 41 838
369 41 592
370 41 332
371 41 460
372 41 53
373 40 470
374 40 444
375 40 971
376 40 770
377 40 725
378 40 739
379 40 656
380 39 326
381 39 518
382 39 198
383 39 289
384 39 515
385 39 892
386 39 199
387 38 177
388 38 827
389 38 657
390 38 383
391 38 323
392 38 512
393 38 223
394 37 469
395 37 710
396 37 789
397 37 973
398 37 966
399 37 390
400 36 415
401 36 309
402 36 813
403 36 13
404 36 851
405 36 818
406 36 999
407 36 554
408 36 132
409 36 455
410 35 403
411 35 42
412 35 275
413 35 776
414 35 151
415 35 825
416 35 467
417 35 178
418 35 397
419 35 216
420 34 839
421 34 400
422 34 779
423 34 447
424 34 230
425 34 177
426 34 916
427 34 159
428 33 195
429 33 752
430 33 396
431 33 531
432 33 567
433 33 472
434 33 508
435 33 280
436 32 195
437 32 72
438 32 644
439 32 680
440 32 553
441 32 590
442 32 798
443 31 240
444 31 962
445 31 208
446 31 402
447 31 294
448 31 283
449 31 818
450 31 532
451 31 645
452 30 584
453 30 44
454 30 120
455 30 916
456 30 65
457 30 253
458 29 700
459 29 190
460 29 123
461 29 660
462 29 60
463 29 435
464 29 289
465 29 241
466 28 772
467 28 67
468 28 396
469 28 101
470 28 76
471 28 714
472 28 268
473 28 715
474 27 560
475 27 50
476 27 124
477 27 419
478 27 594
479 27 563
480 27 358
481 26 749
482 26 150
483 26 407
484 26 729
485 26 25
486 26 517
487 26 872
488 25 607
489 25 719
490 25 863
491 25 258
492 24 232
493 24 995
494 24 176
495 24 687
496 24 31
497 24 540
498 24 209
499 24 448
500 24 969
